101 674
1 69 27 28 101 53 26 21 74 22 41 2 87 42 57 15 43 14 38 44 86 16 61 5 60 83 84 17 45 46 8 82 48 19 47 36 49 64 11 63 90 32 20 66 71 65 35 9 51 30 70 31 10 62 88 7 52 18 89 94 6 96 99 93 85 91 100 37 92 98 59 95 97 13 58 40 73 72 75 56 23 67 39 25 55 4 54 12 68 80 24 29 34 78 81 33 79 3 77 76 50 
